DIMENSION: 225
21
22
23
24
208
25
36
37
33
35
34
26
204
28
29
30
202
206
32
31
76
74
75
72
70
71
73
102
104
220
106
108
109
107
105
88
89
103
101
100
99
98
216
219
217
77
78
79
81
80
95
209
97
96
93
94
221
83
82
85
84
92
91
90
87
210
86
131
211
130
222
132
129
128
127
126
167
166
165
164
215
134
135
213
158
163
162
161
160
159
141
140
137
183
136
138
139
142
201
143
145
144
157
156
155
154
153
146
147
148
152
149
150
151
214
212
125
168
169
170
172
173
174
176
177
178
179
180
181
182
171
124
123
110
111
112
64
65
67
69
68
66
63
61
60
62
113
114
115
223
116
117
118
119
121
122
175
120
184
185
186
187
188
27
189
47
225
190
2
59
58
207
49
133
205
191
192
196
193
218
194
46
195
6
197
198
200
1
3
4
5
7
8
43
42
44
45
48
199
224
50
51
57
56
55
52
54
53
41
40
9
10
39
38
11
12
13
14
16
15
17
18
19
203
20
